
Gurobi 6.5.2 (linux64) logging started Wed Aug 31 10:35:26 2016

Optimize a model with 41 rows, 153 columns and 309 nonzeros
Coefficient statistics:
  Matrix range    [1e+00, 2e+00]
  Objective range [1e+00, 1e+02]
  Bounds range    [1e+00, 1e+00]
  RHS range       [1e+00, 1e+00]
Found heuristic solution: objective 882
Presolve removed 20 rows and 18 columns
Presolve time: 0.00s
Presolved: 21 rows, 135 columns, 271 nonzeros
Variable types: 0 continuous, 135 integer (135 binary)

Root relaxation: objective 4.250000e+02, 26 iterations, 0.00 seconds

    Nodes    |    Current Node    |     Objective Bounds      |     Work
 Expl Unexpl |  Obj  Depth IntInf | Incumbent    BestBd   Gap | It/Node Time

*    0     0               0     425.0000000  425.00000  0.00%     -    0s

Explored 0 nodes (26 simplex iterations) in 0.00 seconds
Thread count was 8 (of 8 available processors)

Optimal solution found (tolerance 1.00e-04)
Best objective 4.250000000000e+02, best bound 4.250000000000e+02, gap 0.0%
